maximize
OBJ:100x0 + 100x1 + 100x2 + 100x3 + 100x4 + 100x5 + 100x6 + 100x7 + 100x8 + 100x9 + 100x10 + 100x11 + 100x12 + 100x13 + 100x14 + 100x15 + 100x16 + 100x17 + 100x18 + 100x19 + 100x20 + 100x21 + 100x22 + 100x23 + 100x24 + 100x25 + 100x26 + 100x27 + 100x28 + 100x29 + 100x30 + 100x31 + 100x32 + 100x33 + 100x34 + 100x35 + 100x36 + 100x37 + 100x38 + 100x39 + 100x40 + 100x41 + 100x42 + 100x43 + 100x44 + 100x45 + 100x46 + 100x47 + 100x48 + 100x49 + 100x50 + 100x51 + 100x52 + 100x53 + 100x54 + 100x55 + 100x56 + 100x57 + 100x58 + 100x59 + 100x60 + 100x61 - y15_21 - y55_57 - y7_17 - y7_26 - y18_26 - y15_39 - y18_35 - y40_41 - y48_54 - y21_37 - y0_14 - y11_14 - y6_57 - y11_23 - y40_59 - y2_32 - y44_47 - y3_6 - y10_54 - y3_15 - y14_15 - y22_28 - y22_37 - y22_46 - y14_51 - y7_12 - y47_48 - y15_25 - y17_53 - y28_53 - y6_34 - y29_36 - y0_9 - y6_43 - y29_45 - y48_58 - y6_52 - y2_27 - y33_42 - y2_36 - y25_38 - y25_47 - y3_10 - y51_59 - y2_54 - y32_55 - y13_60 - y35_60 - y3_37 - y14_37 - y16_56 - y36_43 - y47_52 - y9_44 - y5_55 - y6_47 - y21_45 - y40_58 - y10_17 - y2_22 - y10_35 - y10_44 - y3_14 - y43_50 - y35_46 - y43_59 - y24_55 - y16_60 - y36_47 - y9_30 - y5_41 - y5_50 - y9_48 - y50_58 - y29_35 - y2_26 - y23_58 - y13_32 - y3_9 - y24_41 - y35_41 - y3_18 - y24_50 - y36_42 - y17_38 - y47_51 - y6_10 - y5_54 - y6_19 - y9_52 - y6_28 - y29_30 - y21_35 - y39_43 - y2_3 - y10_25 - y20_57 - y4_49 - y13_27 - y4_58 - y32_40 - y32_49 - y13_45 - y24_45 - y43_58 - y24_54 - y5_22 - y28_33 - y9_47 - y5_58 - y6_32 - y8_51 - y21_30 - y19_60 - y0_56 - y31_34 - y2_7 - y31_43 - y39_56 - y2_16 - y23_48 - y31_61 - y4_44 - y23_57 - y13_22 - y1_29 - y13_31 - y24_31 - y35_40 - y1_47 - y35_49 - y5_8 - y1_56 - y9_15 - y5_26 - y17_28 - y49_60 - y17_37 - y27_41 - y19_46 - y30_46 - y42_48 - y19_55 - y20_29 - y11_60 - y31_38 - y31_47 - y20_56 - y31_56 - y13_17 - y4_48 - y23_61 - y1_33 - y13_35 - y24_35 - y24_44 - y16_40 - y1_51 - y16_49 - y46_50 - y9_10 - y15_53 - y49_55 - y9_28 - y7_58 - y27_36 - y6_13 - y11_37 - y30_50 - y11_46 - y19_59 - y30_59 - y23_38 - y23_47 - y1_19 - y4_52 - y34_53 - y1_28 - y16_35 - y1_46 - y9_14 - y15_48 - y5_25 - y7_44 - y38_50 - y8_36 - y30_36 - y50_51 - y30_45 - y11_59 - y20_37 - y4_20 - y4_29 - y12_42 - y23_42 - y34_39 - y13_16 - y4_47 - y1_23 - y37_44 - y22_55 - y45_57 - y1_32 - y3_60 - y46_49 - y26_43 - y7_39 - y18_39 - y15_61 - y18_57 - y8_22 - y19_22 - y8_31 - y19_31 - y27_44 - y0_27 - y11_27 - y11_36 - y20_23 - y4_6 - y0_54 - y52_55 - y33_51 - y23_28 - y44_60 - y1_18 - y22_50 - y3_46 - y45_61 - y14_55 - y15_38 - y26_38 - y38_40 - y38_49 - y7_43 - y15_56 - y7_52 - y7_61 - y8_26 - y19_26 - y0_22 - y29_58 - y8_35 - y19_35 - y30_35 - y0_31 - y19_44 - y11_40 - y4_10 - y44_46 - y41_59 - y52_59 - y4_19 - y33_55 - y44_55 - y25_51 - y25_60 - y22_36 - y37_43 - y15_24 - y18_20 - y18_56 - y11_26 - y21_58 - y0_35 - y4_5 - y41_54 - y25_37 - y52_54 - y4_14 - y10_48 - y44_59 - y14_27 - y22_40 - y34_42 - y14_36 - y45_51 - y14_45 - y37_56 - y7_15 - y7_24 - y8_16 - y11_12 - y19_25 - y48_61 - y0_21 - y29_57 - y40_57 - y11_30 - y41_49 - y10_52 - y2_48 - y25_59 - y3_31 - y14_31 - y22_44 - y3_49 - y14_49 - y7_19 - y18_19 - y17_51 - y8_11 - y48_56 - y11_16 - y40_52 - y40_61 - y10_29 - y10_47 - y3_8 - y10_56 - y2_52 - y25_54 - y32_53 - y2_61 - y3_26 - y14_26 - y13_58 - y36_41 - y47_50 - y7_23 - y36_59 - y5_53 - y9_60 - y21_25 - y6_36 - y29_38 - y48_51 - y40_56 - y10_15 - y21_61 - y2_20 - y10_33 - y10_42 - y25_40 - y43_48 - y3_21 - y14_21 - y43_57 - y35_53 - y1_60 - y47_54 - y9_46 - y5_57 - y17_59 - y6_31 - y29_33 - y29_42 - y40_51 - y2_6 - y2_15 - y25_35 - y32_34 - y51_56 - y13_39 - y24_39 - y13_48 - y16_44 - y1_55 - y13_57 - y5_34 - y36_49 - y17_45 - y47_58 - y5_52 - y5_61 - y21_24 - y2_10 - y2_19 - y31_55 - y23_51 - y23_60 - y32_38 - y13_34 - y1_41 - y43_56 - y24_52 - y35_52 - y24_61 - y36_44 - y9_27 - y9_45 - y5_56 - y58_59 - y50_55 - y6_39 - y2_5 - y10_18 - y39_54 - y2_14 - y54_61 - y12_55 - y13_20 - y4_51 - y13_29 - y4_60 - y16_25 - y51_55 - y32_51 - y43_51 - y16_52 - y5_15 - y5_24 - y9_31 - y9_40 - y27_57 - y19_53 - y42_55 - y23_32 - y2_9 - y31_45 - y39_58 - y2_18 - y31_54 - y12_50 - y23_59 - y1_22 - y32_37 - y1_31 - y24_42 - y16_38 - y16_47 - y5_10 - y46_48 - y49_53 - y26_60 - y19_39 - y50_54 - y19_48 - y42_50 - y11_44 - y42_59 - y20_22 - y12_27 - y20_40 - y4_23 - y31_40 - y20_49 - y31_49 - y23_45 - y20_58 - y4_41 - y1_17 - y34_60 - y45_60 - y24_37 - y56_60 - y38_39 - y9_21 - y49_57 - y7_51 - y27_29 - y30_34 - y0_30 - y8_43 - y0_39 - y12_13 - y19_61 - y23_31 - y20_44 - y23_40 - y53_59 - y4_54 - y45_55 - y1_30 - y26_41 - y38_43 - y26_50 - y38_52 - y7_46 - y49_61 - y8_20 - y11_25 - y30_47 - y8_56 - y19_56 - y20_21 - y41_53 - y4_13 - y0_61 - y12_26 - y31_39 - y44_58 - y23_35 - y23_44 - y34_41 - y22_48 - y37_46 - y16_23 - y34_59 - y45_59 - y3_53 - y37_55 - y56_59 - y5_13 - y18_32 - y49_56 - y7_50 - y8_24 - y27_46 - y0_29 - y30_51 - y0_47 - y60_61 - y4_8 - y25_58 - y4_35 - y1_11 - y22_43 - y1_20 - y37_41 - y34_54 - y3_48 - y22_61 - y37_59 - y7_18 - y38_42 - y7_36 - y15_49 - y7_45 - y18_45 - y15_58 - y8_28 - y4_12 - y44_48 - y41_61 - y25_53 - y2_60 - y3_34 - y3_43 - y22_56 - y14_52 - y15_17 - y7_13 - y15_26 - y15_35 - y26_44 - y7_40 - y0_1 - y48_50 - y0_10 - y29_46 - y19_23 - y40_46 - y40_55 - y11_28 - y41_47 - y25_30 - y4_7 - y10_41 - y10_50 - y44_52 - y25_48 - y44_61 - y3_38 - y3_47
 Subject to
C1: x0+x1-y0_1 <=1 
C2: x0+x2 <=1 
C3: x0+x3 <=1 
C4: x0+x6 <=1 
C5: x0+x8 <=1 
C6: x0+x9-y0_9 <=1 
C7: x0+x10-y0_10 <=1 
C8: x0+x12 <=1 
C9: x0+x13 <=1 
C10: x0+x14-y0_14 <=1 
C11: x0+x17 <=1 
C12: x0+x18 <=1 
C13: x0+x20 <=1 
C14: x0+x21-y0_21 <=1 
C15: x0+x22-y0_22 <=1 
C16: x0+x25 <=1 
C17: x0+x26 <=1 
C18: x0+x27-y0_27 <=1 
C19: x0+x29-y0_29 <=1 
C20: x0+x30-y0_30 <=1 
C21: x0+x31-y0_31 <=1 
C22: x0+x34 <=1 
C23: x0+x35-y0_35 <=1 
C24: x0+x37 <=1 
C25: x0+x39-y0_39 <=1 
C26: x0+x42 <=1 
C27: x0+x43 <=1 
C28: x0+x47-y0_47 <=1 
C29: x0+x51 <=1 
C30: x0+x52 <=1 
C31: x0+x54-y0_54 <=1 
C32: x0+x56-y0_56 <=1 
C33: x0+x58 <=1 
C34: x0+x59 <=1 
C35: x0+x61-y0_61 <=1 
C36: x1+x5 <=1 
C37: x1+x7 <=1 
C38: x1+x9 <=1 
C39: x1+x11-y1_11 <=1 
C40: x1+x12 <=1 
C41: x1+x15 <=1 
C42: x1+x17-y1_17 <=1 
C43: x1+x18-y1_18 <=1 
C44: x1+x19-y1_19 <=1 
C45: x1+x20-y1_20 <=1 
C46: x1+x21 <=1 
C47: x1+x22-y1_22 <=1 
C48: x1+x23-y1_23 <=1 
C49: x1+x26 <=1 
C50: x1+x28-y1_28 <=1 
C51: x1+x29-y1_29 <=1 
C52: x1+x30-y1_30 <=1 
C53: x1+x31-y1_31 <=1 
C54: x1+x32-y1_32 <=1 
C55: x1+x33-y1_33 <=1 
C56: x1+x37 <=1 
C57: x1+x39 <=1 
C58: x1+x41-y1_41 <=1 
C59: x1+x45 <=1 
C60: x1+x46-y1_46 <=1 
C61: x1+x47-y1_47 <=1 
C62: x1+x48 <=1 
C63: x1+x51-y1_51 <=1 
C64: x1+x55-y1_55 <=1 
C65: x1+x56-y1_56 <=1 
C66: x1+x59 <=1 
C67: x1+x60-y1_60 <=1 
C68: x1+x61 <=1 
C69: x2+x3-y2_3 <=1 
C70: x2+x5-y2_5 <=1 
C71: x2+x6-y2_6 <=1 
C72: x2+x7-y2_7 <=1 
C73: x2+x9-y2_9 <=1 
C74: x2+x10-y2_10 <=1 
C75: x2+x13 <=1 
C76: x2+x14-y2_14 <=1 
C77: x2+x15-y2_15 <=1 
C78: x2+x16-y2_16 <=1 
C79: x2+x18-y2_18 <=1 
C80: x2+x19-y2_19 <=1 
C81: x2+x20-y2_20 <=1 
C82: x2+x22-y2_22 <=1 
C83: x2+x23 <=1 
C84: x2+x24 <=1 
C85: x2+x25 <=1 
C86: x2+x26-y2_26 <=1 
C87: x2+x27-y2_27 <=1 
C88: x2+x28 <=1 
C89: x2+x32-y2_32 <=1 
C90: x2+x35 <=1 
C91: x2+x36-y2_36 <=1 
C92: x2+x40 <=1 
C93: x2+x41 <=1 
C94: x2+x42 <=1 
C95: x2+x43 <=1 
C96: x2+x48-y2_48 <=1 
C97: x2+x51 <=1 
C98: x2+x52-y2_52 <=1 
C99: x2+x54-y2_54 <=1 
C100: x2+x60-y2_60 <=1 
C101: x2+x61-y2_61 <=1 
C102: x3+x6-y3_6 <=1 
C103: x3+x7 <=1 
C104: x3+x8-y3_8 <=1 
C105: x3+x9-y3_9 <=1 
C106: x3+x10-y3_10 <=1 
C107: x3+x11 <=1 
C108: x3+x13 <=1 
C109: x3+x14-y3_14 <=1 
C110: x3+x15-y3_15 <=1 
C111: x3+x16 <=1 
C112: x3+x18-y3_18 <=1 
C113: x3+x20 <=1 
C114: x3+x21-y3_21 <=1 
C115: x3+x26-y3_26 <=1 
C116: x3+x28 <=1 
C117: x3+x29 <=1 
C118: x3+x31-y3_31 <=1 
C119: x3+x32 <=1 
C120: x3+x34-y3_34 <=1 
C121: x3+x37-y3_37 <=1 
C122: x3+x38-y3_38 <=1 
C123: x3+x39 <=1 
C124: x3+x40 <=1 
C125: x3+x42 <=1 
C126: x3+x43-y3_43 <=1 
C127: x3+x46-y3_46 <=1 
C128: x3+x47-y3_47 <=1 
C129: x3+x48-y3_48 <=1 
C130: x3+x49-y3_49 <=1 
C131: x3+x50 <=1 
C132: x3+x53-y3_53 <=1 
C133: x3+x55 <=1 
C134: x3+x56 <=1 
C135: x3+x57 <=1 
C136: x3+x58 <=1 
C137: x3+x60-y3_60 <=1 
C138: x4+x5-y4_5 <=1 
C139: x4+x6-y4_6 <=1 
C140: x4+x7-y4_7 <=1 
C141: x4+x8-y4_8 <=1 
C142: x4+x9 <=1 
C143: x4+x10-y4_10 <=1 
C144: x4+x11 <=1 
C145: x4+x12-y4_12 <=1 
C146: x4+x13-y4_13 <=1 
C147: x4+x14-y4_14 <=1 
C148: x4+x17 <=1 
C149: x4+x19-y4_19 <=1 
C150: x4+x20-y4_20 <=1 
C151: x4+x22 <=1 
C152: x4+x23-y4_23 <=1 
C153: x4+x24 <=1 
C154: x4+x25 <=1 
C155: x4+x29-y4_29 <=1 
C156: x4+x30 <=1 
C157: x4+x31 <=1 
C158: x4+x34 <=1 
C159: x4+x35-y4_35 <=1 
C160: x4+x37 <=1 
C161: x4+x40 <=1 
C162: x4+x41-y4_41 <=1 
C163: x4+x44-y4_44 <=1 
C164: x4+x46 <=1 
C165: x4+x47-y4_47 <=1 
C166: x4+x48-y4_48 <=1 
C167: x4+x49-y4_49 <=1 
C168: x4+x51-y4_51 <=1 
C169: x4+x52-y4_52 <=1 
C170: x4+x53 <=1 
C171: x4+x54-y4_54 <=1 
C172: x4+x58-y4_58 <=1 
C173: x4+x60-y4_60 <=1 
C174: x4+x61 <=1 
C175: x5+x8-y5_8 <=1 
C176: x5+x10-y5_10 <=1 
C177: x5+x11 <=1 
C178: x5+x13-y5_13 <=1 
C179: x5+x15-y5_15 <=1 
C180: x5+x20 <=1 
C181: x5+x21 <=1 
C182: x5+x22-y5_22 <=1 
C183: x5+x23 <=1 
C184: x5+x24-y5_24 <=1 
C185: x5+x25-y5_25 <=1 
C186: x5+x26-y5_26 <=1 
C187: x5+x28 <=1 
C188: x5+x32 <=1 
C189: x5+x34-y5_34 <=1 
C190: x5+x35 <=1 
C191: x5+x36 <=1 
C192: x5+x37 <=1 
C193: x5+x38 <=1 
C194: x5+x41-y5_41 <=1 
C195: x5+x43 <=1 
C196: x5+x46 <=1 
C197: x5+x48 <=1 
C198: x5+x50-y5_50 <=1 
C199: x5+x51 <=1 
C200: x5+x52-y5_52 <=1 
C201: x5+x53-y5_53 <=1 
C202: x5+x54-y5_54 <=1 
C203: x5+x55-y5_55 <=1 
C204: x5+x56-y5_56 <=1 
C205: x5+x57-y5_57 <=1 
C206: x5+x58-y5_58 <=1 
C207: x5+x59 <=1 
C208: x5+x60 <=1 
C209: x5+x61-y5_61 <=1 
C210: x6+x8 <=1 
C211: x6+x9 <=1 
C212: x6+x10-y6_10 <=1 
C213: x6+x13-y6_13 <=1 
C214: x6+x19-y6_19 <=1 
C215: x6+x20 <=1 
C216: x6+x24 <=1 
C217: x6+x26 <=1 
C218: x6+x28-y6_28 <=1 
C219: x6+x31-y6_31 <=1 
C220: x6+x32-y6_32 <=1 
C221: x6+x34-y6_34 <=1 
C222: x6+x35 <=1 
C223: x6+x36-y6_36 <=1 
C224: x6+x39-y6_39 <=1 
C225: x6+x40 <=1 
C226: x6+x43-y6_43 <=1 
C227: x6+x46 <=1 
C228: x6+x47-y6_47 <=1 
C229: x6+x51 <=1 
C230: x6+x52-y6_52 <=1 
C231: x6+x54 <=1 
C232: x6+x56 <=1 
C233: x6+x57-y6_57 <=1 
C234: x6+x58 <=1 
C235: x6+x60 <=1 
C236: x6+x61 <=1 
C237: x7+x8 <=1 
C238: x7+x11 <=1 
C239: x7+x12-y7_12 <=1 
C240: x7+x13-y7_13 <=1 
C241: x7+x14 <=1 
C242: x7+x15-y7_15 <=1 
C243: x7+x17-y7_17 <=1 
C244: x7+x18-y7_18 <=1 
C245: x7+x19-y7_19 <=1 
C246: x7+x20 <=1 
C247: x7+x23-y7_23 <=1 
C248: x7+x24-y7_24 <=1 
C249: x7+x26-y7_26 <=1 
C250: x7+x29 <=1 
C251: x7+x30 <=1 
C252: x7+x31 <=1 
C253: x7+x32 <=1 
C254: x7+x33 <=1 
C255: x7+x34 <=1 
C256: x7+x35 <=1 
C257: x7+x36-y7_36 <=1 
C258: x7+x37 <=1 
C259: x7+x39-y7_39 <=1 
C260: x7+x40-y7_40 <=1 
C261: x7+x43-y7_43 <=1 
C262: x7+x44-y7_44 <=1 
C263: x7+x45-y7_45 <=1 
C264: x7+x46-y7_46 <=1 
C265: x7+x47 <=1 
C266: x7+x50-y7_50 <=1 
C267: x7+x51-y7_51 <=1 
C268: x7+x52-y7_52 <=1 
C269: x7+x54 <=1 
C270: x7+x55 <=1 
C271: x7+x58-y7_58 <=1 
C272: x7+x60 <=1 
C273: x7+x61-y7_61 <=1 
C274: x8+x10 <=1 
C275: x8+x11-y8_11 <=1 
C276: x8+x13 <=1 
C277: x8+x16-y8_16 <=1 
C278: x8+x17 <=1 
C279: x8+x18 <=1 
C280: x8+x20-y8_20 <=1 
C281: x8+x21 <=1 
C282: x8+x22-y8_22 <=1 
C283: x8+x24-y8_24 <=1 
C284: x8+x25 <=1 
C285: x8+x26-y8_26 <=1 
C286: x8+x28-y8_28 <=1 
C287: x8+x31-y8_31 <=1 
C288: x8+x33 <=1 
C289: x8+x34 <=1 
C290: x8+x35-y8_35 <=1 
C291: x8+x36-y8_36 <=1 
C292: x8+x40 <=1 
C293: x8+x42 <=1 
C294: x8+x43-y8_43 <=1 
C295: x8+x46 <=1 
C296: x8+x48 <=1 
C297: x8+x51-y8_51 <=1 
C298: x8+x54 <=1 
C299: x8+x55 <=1 
C300: x8+x56-y8_56 <=1 
C301: x8+x57 <=1 
C302: x8+x59 <=1 
C303: x9+x10-y9_10 <=1 
C304: x9+x11 <=1 
C305: x9+x14-y9_14 <=1 
C306: x9+x15-y9_15 <=1 
C307: x9+x16 <=1 
C308: x9+x17 <=1 
C309: x9+x18 <=1 
C310: x9+x19 <=1 
C311: x9+x21-y9_21 <=1 
C312: x9+x22 <=1 
C313: x9+x26 <=1 
C314: x9+x27-y9_27 <=1 
C315: x9+x28-y9_28 <=1 
C316: x9+x29 <=1 
C317: x9+x30-y9_30 <=1 
C318: x9+x31-y9_31 <=1 
C319: x9+x32 <=1 
C320: x9+x36 <=1 
C321: x9+x37 <=1 
C322: x9+x39 <=1 
C323: x9+x40-y9_40 <=1 
C324: x9+x41 <=1 
C325: x9+x42 <=1 
C326: x9+x44-y9_44 <=1 
C327: x9+x45-y9_45 <=1 
C328: x9+x46-y9_46 <=1 
C329: x9+x47-y9_47 <=1 
C330: x9+x48-y9_48 <=1 
C331: x9+x50 <=1 
C332: x9+x51 <=1 
C333: x9+x52-y9_52 <=1 
C334: x9+x58 <=1 
C335: x9+x59 <=1 
C336: x9+x60-y9_60 <=1 
C337: x9+x61 <=1 
C338: x10+x15-y10_15 <=1 
C339: x10+x16 <=1 
C340: x10+x17-y10_17 <=1 
C341: x10+x18-y10_18 <=1 
C342: x10+x21 <=1 
C343: x10+x22 <=1 
C344: x10+x25-y10_25 <=1 
C345: x10+x26 <=1 
C346: x10+x27 <=1 
C347: x10+x28 <=1 
C348: x10+x29-y10_29 <=1 
C349: x10+x33-y10_33 <=1 
C350: x10+x35-y10_35 <=1 
C351: x10+x37 <=1 
C352: x10+x41-y10_41 <=1 
C353: x10+x42-y10_42 <=1 
C354: x10+x44-y10_44 <=1 
C355: x10+x47-y10_47 <=1 
C356: x10+x48-y10_48 <=1 
C357: x10+x49 <=1 
C358: x10+x50-y10_50 <=1 
C359: x10+x51 <=1 
C360: x10+x52-y10_52 <=1 
C361: x10+x54-y10_54 <=1 
C362: x10+x55 <=1 
C363: x10+x56-y10_56 <=1 
C364: x10+x58 <=1 
C365: x11+x12-y11_12 <=1 
C366: x11+x14-y11_14 <=1 
C367: x11+x16-y11_16 <=1 
C368: x11+x17 <=1 
C369: x11+x21 <=1 
C370: x11+x23-y11_23 <=1 
C371: x11+x25-y11_25 <=1 
C372: x11+x26-y11_26 <=1 
C373: x11+x27-y11_27 <=1 
C374: x11+x28-y11_28 <=1 
C375: x11+x29 <=1 
C376: x11+x30-y11_30 <=1 
C377: x11+x32 <=1 
C378: x11+x33 <=1 
C379: x11+x36-y11_36 <=1 
C380: x11+x37-y11_37 <=1 
C381: x11+x38 <=1 
C382: x11+x39 <=1 
C383: x11+x40-y11_40 <=1 
C384: x11+x42 <=1 
C385: x11+x44-y11_44 <=1 
C386: x11+x45 <=1 
C387: x11+x46-y11_46 <=1 
C388: x11+x48 <=1 
C389: x11+x50 <=1 
C390: x11+x51 <=1 
C391: x11+x58 <=1 
C392: x11+x59-y11_59 <=1 
C393: x11+x60-y11_60 <=1 
C394: x11+x61 <=1 
C395: x12+x13-y12_13 <=1 
C396: x12+x21 <=1 
C397: x12+x22 <=1 
C398: x12+x26-y12_26 <=1 
C399: x12+x27-y12_27 <=1 
C400: x12+x28 <=1 
C401: x12+x29 <=1 
C402: x12+x30 <=1 
C403: x12+x33 <=1 
C404: x12+x36 <=1 
C405: x12+x37 <=1 
C406: x12+x39 <=1 
C407: x12+x40 <=1 
C408: x12+x42-y12_42 <=1 
C409: x12+x44 <=1 
C410: x12+x47 <=1 
C411: x12+x48 <=1 
C412: x12+x50-y12_50 <=1 
C413: x12+x55-y12_55 <=1 
C414: x12+x60 <=1 
C415: x13+x16-y13_16 <=1 
C416: x13+x17-y13_17 <=1 
C417: x13+x20-y13_20 <=1 
C418: x13+x21 <=1 
C419: x13+x22-y13_22 <=1 
C420: x13+x23 <=1 
C421: x13+x24 <=1 
C422: x13+x26 <=1 
C423: x13+x27-y13_27 <=1 
C424: x13+x29-y13_29 <=1 
C425: x13+x30 <=1 
C426: x13+x31-y13_31 <=1 
C427: x13+x32-y13_32 <=1 
C428: x13+x33 <=1 
C429: x13+x34-y13_34 <=1 
C430: x13+x35-y13_35 <=1 
C431: x13+x36 <=1 
C432: x13+x39-y13_39 <=1 
C433: x13+x43 <=1 
C434: x13+x45-y13_45 <=1 
C435: x13+x47 <=1 
C436: x13+x48-y13_48 <=1 
C437: x13+x54 <=1 
C438: x13+x56 <=1 
C439: x13+x57-y13_57 <=1 
C440: x13+x58-y13_58 <=1 
C441: x13+x60-y13_60 <=1 
C442: x13+x61 <=1 
C443: x14+x15-y14_15 <=1 
C444: x14+x19 <=1 
C445: x14+x20 <=1 
C446: x14+x21-y14_21 <=1 
C447: x14+x24 <=1 
C448: x14+x25 <=1 
C449: x14+x26-y14_26 <=1 
C450: x14+x27-y14_27 <=1 
C451: x14+x28 <=1 
C452: x14+x31-y14_31 <=1 
C453: x14+x33 <=1 
C454: x14+x34 <=1 
C455: x14+x35 <=1 
C456: x14+x36-y14_36 <=1 
C457: x14+x37-y14_37 <=1 
C458: x14+x38 <=1 
C459: x14+x39 <=1 
C460: x14+x40 <=1 
C461: x14+x42 <=1 
C462: x14+x43 <=1 
C463: x14+x45-y14_45 <=1 
C464: x14+x47 <=1 
C465: x14+x48 <=1 
C466: x14+x49-y14_49 <=1 
C467: x14+x51-y14_51 <=1 
C468: x14+x52-y14_52 <=1 
C469: x14+x55-y14_55 <=1 
C470: x14+x58 <=1 
C471: x14+x59 <=1 
C472: x14+x60 <=1 
C473: x14+x61 <=1 
C474: x15+x16 <=1 
C475: x15+x17-y15_17 <=1 
C476: x15+x21-y15_21 <=1 
C477: x15+x22 <=1 
C478: x15+x23 <=1 
C479: x15+x24-y15_24 <=1 
C480: x15+x25-y15_25 <=1 
C481: x15+x26-y15_26 <=1 
C482: x15+x27 <=1 
C483: x15+x31 <=1 
C484: x15+x35-y15_35 <=1 
C485: x15+x38-y15_38 <=1 
C486: x15+x39-y15_39 <=1 
C487: x15+x40 <=1 
C488: x15+x41 <=1 
C489: x15+x42 <=1 
C490: x15+x43 <=1 
C491: x15+x45 <=1 
C492: x15+x48-y15_48 <=1 
C493: x15+x49-y15_49 <=1 
C494: x15+x51 <=1 
C495: x15+x52 <=1 
C496: x15+x53-y15_53 <=1 
C497: x15+x55 <=1 
C498: x15+x56-y15_56 <=1 
C499: x15+x57 <=1 
C500: x15+x58-y15_58 <=1 
C501: x15+x61-y15_61 <=1 
C502: x16+x19 <=1 
C503: x16+x20 <=1 
C504: x16+x23-y16_23 <=1 
C505: x16+x24 <=1 
C506: x16+x25-y16_25 <=1 
C507: x16+x26 <=1 
C508: x16+x28 <=1 
C509: x16+x33 <=1 
C510: x16+x34 <=1 
C511: x16+x35-y16_35 <=1 
C512: x16+x38-y16_38 <=1 
C513: x16+x39 <=1 
C514: x16+x40-y16_40 <=1 
C515: x16+x42 <=1 
C516: x16+x44-y16_44 <=1 
C517: x16+x47-y16_47 <=1 
C518: x16+x49-y16_49 <=1 
C519: x16+x50 <=1 
C520: x16+x52-y16_52 <=1 
C521: x16+x56-y16_56 <=1 
C522: x16+x60-y16_60 <=1 
C523: x17+x18 <=1 
C524: x17+x19 <=1 
C525: x17+x20 <=1 
C526: x17+x25 <=1 
C527: x17+x26 <=1 
C528: x17+x27 <=1 
C529: x17+x28-y17_28 <=1 
C530: x17+x29 <=1 
C531: x17+x31 <=1 
C532: x17+x32 <=1 
C533: x17+x34 <=1 
C534: x17+x36 <=1 
C535: x17+x37-y17_37 <=1 
C536: x17+x38-y17_38 <=1 
C537: x17+x41 <=1 
C538: x17+x42 <=1 
C539: x17+x43 <=1 
C540: x17+x44 <=1 
C541: x17+x45-y17_45 <=1 
C542: x17+x46 <=1 
C543: x17+x47 <=1 
C544: x17+x49 <=1 
C545: x17+x50 <=1 
C546: x17+x51-y17_51 <=1 
C547: x17+x53-y17_53 <=1 
C548: x17+x55 <=1 
C549: x17+x57 <=1 
C550: x17+x58 <=1 
C551: x17+x59-y17_59 <=1 
C552: x17+x61 <=1 
C553: x18+x19-y18_19 <=1 
C554: x18+x20-y18_20 <=1 
C555: x18+x21 <=1 
C556: x18+x24 <=1 
C557: x18+x26-y18_26 <=1 
C558: x18+x29 <=1 
C559: x18+x31 <=1 
C560: x18+x32-y18_32 <=1 
C561: x18+x35-y18_35 <=1 
C562: x18+x38 <=1 
C563: x18+x39-y18_39 <=1 
C564: x18+x40 <=1 
C565: x18+x43 <=1 
C566: x18+x44 <=1 
C567: x18+x45-y18_45 <=1 
C568: x18+x48 <=1 
C569: x18+x54 <=1 
C570: x18+x56-y18_56 <=1 
C571: x18+x57-y18_57 <=1 
C572: x18+x59 <=1 
C573: x18+x61 <=1 
C574: x19+x21 <=1 
C575: x19+x22-y19_22 <=1 
C576: x19+x23-y19_23 <=1 
C577: x19+x25-y19_25 <=1 
C578: x19+x26-y19_26 <=1 
C579: x19+x29 <=1 
C580: x19+x31-y19_31 <=1 
C581: x19+x32 <=1 
C582: x19+x34 <=1 
C583: x19+x35-y19_35 <=1 
C584: x19+x38 <=1 
C585: x19+x39-y19_39 <=1 
C586: x19+x40 <=1 
C587: x19+x41 <=1 
C588: x19+x44-y19_44 <=1 
C589: x19+x45 <=1 
C590: x19+x46-y19_46 <=1 
C591: x19+x48-y19_48 <=1 
C592: x19+x49 <=1 
C593: x19+x51 <=1 
C594: x19+x52 <=1 
C595: x19+x53-y19_53 <=1 
C596: x19+x54 <=1 
C597: x19+x55-y19_55 <=1 
C598: x19+x56-y19_56 <=1 
C599: x19+x57 <=1 
C600: x19+x58 <=1 
C601: x19+x59-y19_59 <=1 
C602: x19+x60-y19_60 <=1 
C603: x19+x61-y19_61 <=1 
C604: x20+x21-y20_21 <=1 
C605: x20+x22-y20_22 <=1 
C606: x20+x23-y20_23 <=1 
C607: x20+x24 <=1 
C608: x20+x26 <=1 
C609: x20+x29-y20_29 <=1 
C610: x20+x31 <=1 
C611: x20+x32 <=1 
C612: x20+x34 <=1 
C613: x20+x37-y20_37 <=1 
C614: x20+x38 <=1 
C615: x20+x40-y20_40 <=1 
C616: x20+x41 <=1 
C617: x20+x44-y20_44 <=1 
C618: x20+x48 <=1 
C619: x20+x49-y20_49 <=1 
C620: x20+x50 <=1 
C621: x20+x51 <=1 
C622: x20+x56-y20_56 <=1 
C623: x20+x57-y20_57 <=1 
C624: x20+x58-y20_58 <=1 
C625: x21+x23 <=1 
C626: x21+x24-y21_24 <=1 
C627: x21+x25-y21_25 <=1 
C628: x21+x27 <=1 
C629: x21+x30-y21_30 <=1 
C630: x21+x31 <=1 
C631: x21+x33 <=1 
C632: x21+x35-y21_35 <=1 
C633: x21+x36 <=1 
C634: x21+x37-y21_37 <=1 
C635: x21+x38 <=1 
C636: x21+x39 <=1 
C637: x21+x42 <=1 
C638: x21+x44 <=1 
C639: x21+x45-y21_45 <=1 
C640: x21+x47 <=1 
C641: x21+x49 <=1 
C642: x21+x53 <=1 
C643: x21+x56 <=1 
C644: x21+x58-y21_58 <=1 
C645: x21+x59 <=1 
C646: x21+x61-y21_61 <=1 
C647: x22+x24 <=1 
C648: x22+x25 <=1 
C649: x22+x26 <=1 
C650: x22+x28-y22_28 <=1 
C651: x22+x32 <=1 
C652: x22+x33 <=1 
C653: x22+x34 <=1 
C654: x22+x36-y22_36 <=1 
C655: x22+x37-y22_37 <=1 
C656: x22+x38 <=1 
C657: x22+x40-y22_40 <=1 
C658: x22+x43-y22_43 <=1 
C659: x22+x44-y22_44 <=1 
C660: x22+x45 <=1 
C661: x22+x46-y22_46 <=1 
C662: x22+x48-y22_48 <=1 
C663: x22+x49 <=1 
C664: x22+x50-y22_50 <=1 
C665: x22+x55-y22_55 <=1 
C666: x22+x56-y22_56 <=1 
C667: x22+x59 <=1 
C668: x22+x61-y22_61 <=1 
C669: x23+x25 <=1 
C670: x23+x27 <=1 
C671: x23+x28-y23_28 <=1 
C672: x23+x29 <=1 
C673: x23+x31-y23_31 <=1 
C674: x23+x32-y23_32 <=1 
C675: x23+x33 <=1 
C676: x23+x35-y23_35 <=1 
C677: x23+x36 <=1 
C678: x23+x38-y23_38 <=1 
C679: x23+x40-y23_40 <=1 
C680: x23+x41 <=1 
C681: x23+x42-y23_42 <=1 
C682: x23+x43 <=1 
C683: x23+x44-y23_44 <=1 
C684: x23+x45-y23_45 <=1 
C685: x23+x46 <=1 
C686: x23+x47-y23_47 <=1 
C687: x23+x48-y23_48 <=1 
C688: x23+x49 <=1 
C689: x23+x51-y23_51 <=1 
C690: x23+x52 <=1 
C691: x23+x56 <=1 
C692: x23+x57-y23_57 <=1 
C693: x23+x58-y23_58 <=1 
C694: x23+x59-y23_59 <=1 
C695: x23+x60-y23_60 <=1 
C696: x23+x61-y23_61 <=1 
C697: x24+x25 <=1 
C698: x24+x27 <=1 
C699: x24+x29 <=1 
C700: x24+x30 <=1 
C701: x24+x31-y24_31 <=1 
C702: x24+x33 <=1 
C703: x24+x35-y24_35 <=1 
C704: x24+x36 <=1 
C705: x24+x37-y24_37 <=1 
C706: x24+x39-y24_39 <=1 
C707: x24+x40 <=1 
C708: x24+x41-y24_41 <=1 
C709: x24+x42-y24_42 <=1 
C710: x24+x43 <=1 
C711: x24+x44-y24_44 <=1 
C712: x24+x45-y24_45 <=1 
C713: x24+x46 <=1 
C714: x24+x47 <=1 
C715: x24+x48 <=1 
C716: x24+x50-y24_50 <=1 
C717: x24+x51 <=1 
C718: x24+x52-y24_52 <=1 
C719: x24+x54-y24_54 <=1 
C720: x24+x55-y24_55 <=1 
C721: x24+x56 <=1 
C722: x24+x60 <=1 
C723: x24+x61-y24_61 <=1 
C724: x25+x27 <=1 
C725: x25+x29 <=1 
C726: x25+x30-y25_30 <=1 
C727: x25+x31 <=1 
C728: x25+x34 <=1 
C729: x25+x35-y25_35 <=1 
C730: x25+x37-y25_37 <=1 
C731: x25+x38-y25_38 <=1 
C732: x25+x39 <=1 
C733: x25+x40-y25_40 <=1 
C734: x25+x42 <=1 
C735: x25+x45 <=1 
C736: x25+x47-y25_47 <=1 
C737: x25+x48-y25_48 <=1 
C738: x25+x49 <=1 
C739: x25+x51-y25_51 <=1 
C740: x25+x53-y25_53 <=1 
C741: x25+x54-y25_54 <=1 
C742: x25+x56 <=1 
C743: x25+x58-y25_58 <=1 
C744: x25+x59-y25_59 <=1 
C745: x25+x60-y25_60 <=1 
C746: x25+x61 <=1 
C747: x26+x29 <=1 
C748: x26+x31 <=1 
C749: x26+x32 <=1 
C750: x26+x36 <=1 
C751: x26+x37 <=1 
C752: x26+x38-y26_38 <=1 
C753: x26+x40 <=1 
C754: x26+x41-y26_41 <=1 
C755: x26+x43-y26_43 <=1 
C756: x26+x44-y26_44 <=1 
C757: x26+x45 <=1 
C758: x26+x47 <=1 
C759: x26+x50-y26_50 <=1 
C760: x26+x52 <=1 
C761: x26+x59 <=1 
C762: x26+x60-y26_60 <=1 
C763: x27+x28 <=1 
C764: x27+x29-y27_29 <=1 
C765: x27+x31 <=1 
C766: x27+x33 <=1 
C767: x27+x36-y27_36 <=1 
C768: x27+x37 <=1 
C769: x27+x39 <=1 
C770: x27+x41-y27_41 <=1 
C771: x27+x42 <=1 
C772: x27+x43 <=1 
C773: x27+x44-y27_44 <=1 
C774: x27+x45 <=1 
C775: x27+x46-y27_46 <=1 
C776: x27+x50 <=1 
C777: x27+x55 <=1 
C778: x27+x57-y27_57 <=1 
C779: x27+x61 <=1 
C780: x28+x31 <=1 
C781: x28+x33-y28_33 <=1 
C782: x28+x34 <=1 
C783: x28+x35 <=1 
C784: x28+x40 <=1 
C785: x28+x42 <=1 
C786: x28+x46 <=1 
C787: x28+x47 <=1 
C788: x28+x48 <=1 
C789: x28+x51 <=1 
C790: x28+x53-y28_53 <=1 
C791: x28+x56 <=1 
C792: x28+x57 <=1 
C793: x28+x58 <=1 
C794: x28+x59 <=1 
C795: x28+x60 <=1 
C796: x28+x61 <=1 
C797: x29+x30-y29_30 <=1 
C798: x29+x33-y29_33 <=1 
C799: x29+x34 <=1 
C800: x29+x35-y29_35 <=1 
C801: x29+x36-y29_36 <=1 
C802: x29+x38-y29_38 <=1 
C803: x29+x40 <=1 
C804: x29+x41 <=1 
C805: x29+x42-y29_42 <=1 
C806: x29+x44 <=1 
C807: x29+x45-y29_45 <=1 
C808: x29+x46-y29_46 <=1 
C809: x29+x48 <=1 
C810: x29+x54 <=1 
C811: x29+x55 <=1 
C812: x29+x56 <=1 
C813: x29+x57-y29_57 <=1 
C814: x29+x58-y29_58 <=1 
C815: x29+x59 <=1 
C816: x29+x60 <=1 
C817: x29+x61 <=1 
C818: x30+x34-y30_34 <=1 
C819: x30+x35-y30_35 <=1 
C820: x30+x36-y30_36 <=1 
C821: x30+x37 <=1 
C822: x30+x38 <=1 
C823: x30+x42 <=1 
C824: x30+x43 <=1 
C825: x30+x45-y30_45 <=1 
C826: x30+x46-y30_46 <=1 
C827: x30+x47-y30_47 <=1 
C828: x30+x49 <=1 
C829: x30+x50-y30_50 <=1 
C830: x30+x51-y30_51 <=1 
C831: x30+x54 <=1 
C832: x30+x57 <=1 
C833: x30+x59-y30_59 <=1 
C834: x30+x60 <=1 
C835: x31+x34-y31_34 <=1 
C836: x31+x37 <=1 
C837: x31+x38-y31_38 <=1 
C838: x31+x39-y31_39 <=1 
C839: x31+x40-y31_40 <=1 
C840: x31+x42 <=1 
C841: x31+x43-y31_43 <=1 
C842: x31+x45-y31_45 <=1 
C843: x31+x47-y31_47 <=1 
C844: x31+x49-y31_49 <=1 
C845: x31+x50 <=1 
C846: x31+x51 <=1 
C847: x31+x53 <=1 
C848: x31+x54-y31_54 <=1 
C849: x31+x55-y31_55 <=1 
C850: x31+x56-y31_56 <=1 
C851: x31+x58 <=1 
C852: x31+x59 <=1 
C853: x31+x61-y31_61 <=1 
C854: x32+x34-y32_34 <=1 
C855: x32+x35 <=1 
C856: x32+x37-y32_37 <=1 
C857: x32+x38-y32_38 <=1 
C858: x32+x39 <=1 
C859: x32+x40-y32_40 <=1 
C860: x32+x42 <=1 
C861: x32+x44 <=1 
C862: x32+x46 <=1 
C863: x32+x49-y32_49 <=1 
C864: x32+x51-y32_51 <=1 
C865: x32+x52 <=1 
C866: x32+x53-y32_53 <=1 
C867: x32+x54 <=1 
C868: x32+x55-y32_55 <=1 
C869: x32+x56 <=1 
C870: x32+x58 <=1 
C871: x32+x61 <=1 
C872: x33+x34 <=1 
C873: x33+x40 <=1 
C874: x33+x41 <=1 
C875: x33+x42-y33_42 <=1 
C876: x33+x45 <=1 
C877: x33+x46 <=1 
C878: x33+x47 <=1 
C879: x33+x49 <=1 
C880: x33+x51-y33_51 <=1 
C881: x33+x55-y33_55 <=1 
C882: x33+x59 <=1 
C883: x34+x35 <=1 
C884: x34+x36 <=1 
C885: x34+x38 <=1 
C886: x34+x39-y34_39 <=1 
C887: x34+x40 <=1 
C888: x34+x41-y34_41 <=1 
C889: x34+x42-y34_42 <=1 
C890: x34+x47 <=1 
C891: x34+x50 <=1 
C892: x34+x51 <=1 
C893: x34+x52 <=1 
C894: x34+x53-y34_53 <=1 
C895: x34+x54-y34_54 <=1 
C896: x34+x56 <=1 
C897: x34+x58 <=1 
C898: x34+x59-y34_59 <=1 
C899: x34+x60-y34_60 <=1 
C900: x35+x38 <=1 
C901: x35+x40-y35_40 <=1 
C902: x35+x41-y35_41 <=1 
C903: x35+x44 <=1 
C904: x35+x45 <=1 
C905: x35+x46-y35_46 <=1 
C906: x35+x48 <=1 
C907: x35+x49-y35_49 <=1 
C908: x35+x52-y35_52 <=1 
C909: x35+x53-y35_53 <=1 
C910: x35+x54 <=1 
C911: x35+x56 <=1 
C912: x35+x57 <=1 
C913: x35+x59 <=1 
C914: x35+x60-y35_60 <=1 
C915: x35+x61 <=1 
C916: x36+x37 <=1 
C917: x36+x39 <=1 
C918: x36+x41-y36_41 <=1 
C919: x36+x42-y36_42 <=1 
C920: x36+x43-y36_43 <=1 
C921: x36+x44-y36_44 <=1 
C922: x36+x47-y36_47 <=1 
C923: x36+x49-y36_49 <=1 
C924: x36+x51 <=1 
C925: x36+x54 <=1 
C926: x36+x55 <=1 
C927: x36+x56 <=1 
C928: x36+x59-y36_59 <=1 
C929: x37+x38 <=1 
C930: x37+x41-y37_41 <=1 
C931: x37+x42 <=1 
C932: x37+x43-y37_43 <=1 
C933: x37+x44-y37_44 <=1 
C934: x37+x46-y37_46 <=1 
C935: x37+x47 <=1 
C936: x37+x55-y37_55 <=1 
C937: x37+x56-y37_56 <=1 
C938: x37+x59-y37_59 <=1 
C939: x38+x39-y38_39 <=1 
C940: x38+x40-y38_40 <=1 
C941: x38+x42-y38_42 <=1 
C942: x38+x43-y38_43 <=1 
C943: x38+x45 <=1 
C944: x38+x46 <=1 
C945: x38+x49-y38_49 <=1 
C946: x38+x50-y38_50 <=1 
C947: x38+x51 <=1 
C948: x38+x52-y38_52 <=1 
C949: x38+x53 <=1 
C950: x38+x55 <=1 
C951: x38+x57 <=1 
C952: x38+x59 <=1 
C953: x39+x43-y39_43 <=1 
C954: x39+x44 <=1 
C955: x39+x45 <=1 
C956: x39+x49 <=1 
C957: x39+x50 <=1 
C958: x39+x52 <=1 
C959: x39+x54-y39_54 <=1 
C960: x39+x55 <=1 
C961: x39+x56-y39_56 <=1 
C962: x39+x58-y39_58 <=1 
C963: x40+x41-y40_41 <=1 
C964: x40+x43 <=1 
C965: x40+x44 <=1 
C966: x40+x46-y40_46 <=1 
C967: x40+x47 <=1 
C968: x40+x48 <=1 
C969: x40+x49 <=1 
C970: x40+x50 <=1 
C971: x40+x51-y40_51 <=1 
C972: x40+x52-y40_52 <=1 
C973: x40+x55-y40_55 <=1 
C974: x40+x56-y40_56 <=1 
C975: x40+x57-y40_57 <=1 
C976: x40+x58-y40_58 <=1 
C977: x40+x59-y40_59 <=1 
C978: x40+x60 <=1 
C979: x40+x61-y40_61 <=1 
C980: x41+x43 <=1 
C981: x41+x44 <=1 
C982: x41+x45 <=1 
C983: x41+x46 <=1 
C984: x41+x47-y41_47 <=1 
C985: x41+x49-y41_49 <=1 
C986: x41+x52 <=1 
C987: x41+x53-y41_53 <=1 
C988: x41+x54-y41_54 <=1 
C989: x41+x57 <=1 
C990: x41+x59-y41_59 <=1 
C991: x41+x60 <=1 
C992: x41+x61-y41_61 <=1 
C993: x42+x43 <=1 
C994: x42+x46 <=1 
C995: x42+x47 <=1 
C996: x42+x48-y42_48 <=1 
C997: x42+x49 <=1 
C998: x42+x50-y42_50 <=1 
C999: x42+x52 <=1 
C1000: x42+x53 <=1 
C1001: x42+x54 <=1 
C1002: x42+x55-y42_55 <=1 
C1003: x42+x56 <=1 
C1004: x42+x58 <=1 
C1005: x42+x59-y42_59 <=1 
C1006: x42+x61 <=1 
C1007: x43+x48-y43_48 <=1 
C1008: x43+x50-y43_50 <=1 
C1009: x43+x51-y43_51 <=1 
C1010: x43+x53 <=1 
C1011: x43+x54 <=1 
C1012: x43+x55 <=1 
C1013: x43+x56-y43_56 <=1 
C1014: x43+x57-y43_57 <=1 
C1015: x43+x58-y43_58 <=1 
C1016: x43+x59-y43_59 <=1 
C1017: x43+x60 <=1 
C1018: x44+x45 <=1 
C1019: x44+x46-y44_46 <=1 
C1020: x44+x47-y44_47 <=1 
C1021: x44+x48-y44_48 <=1 
C1022: x44+x51 <=1 
C1023: x44+x52-y44_52 <=1 
C1024: x44+x55-y44_55 <=1 
C1025: x44+x57 <=1 
C1026: x44+x58-y44_58 <=1 
C1027: x44+x59-y44_59 <=1 
C1028: x44+x60-y44_60 <=1 
C1029: x44+x61-y44_61 <=1 
C1030: x45+x46 <=1 
C1031: x45+x47 <=1 
C1032: x45+x48 <=1 
C1033: x45+x51-y45_51 <=1 
C1034: x45+x54 <=1 
C1035: x45+x55-y45_55 <=1 
C1036: x45+x56 <=1 
C1037: x45+x57-y45_57 <=1 
C1038: x45+x59-y45_59 <=1 
C1039: x45+x60-y45_60 <=1 
C1040: x45+x61-y45_61 <=1 
C1041: x46+x47 <=1 
C1042: x46+x48-y46_48 <=1 
C1043: x46+x49-y46_49 <=1 
C1044: x46+x50-y46_50 <=1 
C1045: x46+x51 <=1 
C1046: x46+x52 <=1 
C1047: x46+x57 <=1 
C1048: x46+x58 <=1 
C1049: x46+x59 <=1 
C1050: x46+x60 <=1 
C1051: x46+x61 <=1 
C1052: x47+x48-y47_48 <=1 
C1053: x47+x50-y47_50 <=1 
C1054: x47+x51-y47_51 <=1 
C1055: x47+x52-y47_52 <=1 
C1056: x47+x54-y47_54 <=1 
C1057: x47+x57 <=1 
C1058: x47+x58-y47_58 <=1 
C1059: x48+x50-y48_50 <=1 
C1060: x48+x51-y48_51 <=1 
C1061: x48+x53 <=1 
C1062: x48+x54-y48_54 <=1 
C1063: x48+x56-y48_56 <=1 
C1064: x48+x58-y48_58 <=1 
C1065: x48+x61-y48_61 <=1 
C1066: x49+x50 <=1 
C1067: x49+x51 <=1 
C1068: x49+x52 <=1 
C1069: x49+x53-y49_53 <=1 
C1070: x49+x55-y49_55 <=1 
C1071: x49+x56-y49_56 <=1 
C1072: x49+x57-y49_57 <=1 
C1073: x49+x60-y49_60 <=1 
C1074: x49+x61-y49_61 <=1 
C1075: x50+x51-y50_51 <=1 
C1076: x50+x54-y50_54 <=1 
C1077: x50+x55-y50_55 <=1 
C1078: x50+x56 <=1 
C1079: x50+x57 <=1 
C1080: x50+x58-y50_58 <=1 
C1081: x50+x59 <=1 
C1082: x50+x60 <=1 
C1083: x51+x52 <=1 
C1084: x51+x55-y51_55 <=1 
C1085: x51+x56-y51_56 <=1 
C1086: x51+x58 <=1 
C1087: x51+x59-y51_59 <=1 
C1088: x52+x54-y52_54 <=1 
C1089: x52+x55-y52_55 <=1 
C1090: x52+x56 <=1 
C1091: x52+x58 <=1 
C1092: x52+x59-y52_59 <=1 
C1093: x52+x61 <=1 
C1094: x53+x56 <=1 
C1095: x53+x57 <=1 
C1096: x53+x59-y53_59 <=1 
C1097: x54+x55 <=1 
C1098: x54+x57 <=1 
C1099: x54+x61-y54_61 <=1 
C1100: x55+x56 <=1 
C1101: x55+x57-y55_57 <=1 
C1102: x55+x58 <=1 
C1103: x55+x59 <=1 
C1104: x55+x60 <=1 
C1105: x55+x61 <=1 
C1106: x56+x57 <=1 
C1107: x56+x59-y56_59 <=1 
C1108: x56+x60-y56_60 <=1 
C1109: x56+x61 <=1 
C1110: x57+x58 <=1 
C1111: x58+x59-y58_59 <=1 
C1112: x58+x60 <=1 
C1113: x58+x61 <=1 
C1114: x59+x60 <=1 
C1115: x60+x61-y60_61 <=1 

binary
x0
x1
x2
x3
x4
x5
x6
x7
x8
x9
x10
x11
x12
x13
x14
x15
x16
x17
x18
x19
x20
x21
x22
x23
x24
x25
x26
x27
x28
x29
x30
x31
x32
x33
x34
x35
x36
x37
x38
x39
x40
x41
x42
x43
x44
x45
x46
x47
x48
x49
x50
x51
x52
x53
x54
x55
x56
x57
x58
x59
x60
x61
